*SPEF "ieee 1481-1999"
*DESIGN "alu_4bit"
*DATE "21:10:45 Sunday October 04, 2026"
*VENDOR "The OpenROAD Project"
*PROGRAM "OpenROAD"
*VERSION "bazel-nostamp"
*DESIGN_FLOW "NAME_SCOPE LOCAL" "PIN_CAP NONE"
*DIVIDER /
*DELIMITER :
*BUS_DELIMITER []
*T_UNIT 1 NS
*C_UNIT 1 PF
*R_UNIT 1 OHM
*L_UNIT 1 HENRY

*NAME_MAP
*1 A[0]
*2 A[1]
*3 A[2]
*4 A[3]
*5 B[0]
*6 B[1]
*7 B[2]
*8 B[3]
*9 Carry
*10 OP[0]
*11 OP[1]
*12 OP[2]
*13 Y[0]
*14 Y[1]
*15 Y[2]
*16 Y[3]
*17 Zero
*18 _000_
*19 _001_
*20 _002_
*21 _003_
*22 _004_
*23 _005_
*24 _006_
*25 _007_
*26 _008_
*27 _009_
*28 _010_
*29 _011_
*30 _012_
*31 _013_
*32 _014_
*33 _015_
*34 _016_
*35 _017_
*36 _018_
*37 _019_
*38 _020_
*39 _021_
*40 _022_
*41 _023_
*42 _024_
*43 _025_
*44 _026_
*45 _027_
*46 _028_
*47 _029_
*48 _030_
*49 _031_
*50 _032_
*51 _033_
*52 _034_
*53 _035_
*54 _036_
*55 _037_
*56 _038_
*57 _039_
*58 _040_
*59 _041_
*60 _042_
*61 _043_
*62 _044_
*63 _045_
*64 _046_
*65 _047_
*66 _048_
*67 _049_
*68 _050_
*69 _051_
*70 _052_
*71 _053_
*72 _054_
*73 _055_
*74 _056_
*75 _057_
*76 _058_
*77 _059_
*78 _060_
*79 _061_
*80 _062_
*81 _063_
*82 _064_
*83 _065_
*84 _066_
*85 _067_
*86 _068_
*87 _069_
*88 _070_
*89 _071_
*90 _072_
*91 _073_
*92 _074_
*93 _075_
*94 _076_
*95 _077_
*96 _078_
*97 _079_
*98 _080_
*99 _081_
*100 _082_
*101 _083_
*102 _084_
*103 _085_
*104 _086_
*105 _087_
*106 _088_
*107 _089_
*108 _090_
*109 _091_
*110 _092_
*111 _093_
*112 _094_
*113 _095_
*114 _096_
*115 _097_
*116 _098_
*117 _099_
*118 _100_
*119 _101_
*120 _102_
*121 _103_
*122 _104_
*123 _105_
*124 _106_
*125 _107_
*126 _108_
*127 _109_
*128 _110_
*129 _111_
*130 _112_
*131 _113_
*132 _114_
*133 _115_
*134 _116_
*135 _117_
*136 _118_
*137 _119_
*138 _120_
*139 _121_
*140 _122_
*141 _123_
*142 _124_
*143 _125_

*PORTS
A[0] I
A[1] I
A[2] I
A[3] I
B[0] I
B[1] I
B[2] I
B[3] I
Carry O
OP[0] I
OP[1] I
OP[2] I
Y[0] O
Y[1] O
Y[2] O
Y[3] O
Zero O

*D_NET *1 0.00287619
*CONN
*P A[0] I
*I *101:A I *D sky130_fd_sc_hd__nor2_1
*I *93:B I *D sky130_fd_sc_hd__xnor2_1
*I *116:B I *D sky130_fd_sc_hd__or3_1
*I *88:A2 I *D sky130_fd_sc_hd__o21ai_0
*I *98:B I *D sky130_fd_sc_hd__nor2_1
*I *102:B I *D sky130_fd_sc_hd__nand2_1
*CAP
1 A[0] 0.00052894
2 *101:A 0.000125785
3 *93:B 8.55626e-05
4 *116:B 0.000116984
5 *88:A2 0
6 *98:B 1.32622e-05
7 *102:B 2.41714e-05
8 *1:61 0.000470175
9 *1:37 0.000211316
10 *1:24 0.000171981
11 *1:13 0.000214402
12 *1:9 0.000913611
13 *93:B *5:28 0
14 *93:B *12:13 0
15 *98:B *102:A 0
16 *101:A *97:B1 0
17 *101:A *8:21 0
18 *101:A *12:13 0
19 *101:A *16:32 0
20 *102:B *104:A1 0
21 *102:B *104:B1 0
22 *116:B *116:A 0
23 *116:B *14:14 0
24 *116:B *28:12 0
25 *116:B *42:27 0
26 *1:9 Y[0] 0
27 *1:9 *5:28 0
28 *1:13 *5:28 0
29 *1:13 *5:32 0
30 *1:13 *7:5 0
31 *1:13 *11:13 0
32 *1:24 *102:A 0
33 *1:24 *104:A1 0
34 *1:24 *104:B1 0
35 *1:24 *42:27 0
36 *1:37 *88:B1 0
37 *1:37 *102:A 0
38 *1:37 *110:B2 0
39 *1:37 *116:A 0
40 *1:37 *42:27 0
41 *1:61 Y[0] 0
42 *1:61 *141:D 0
43 *1:61 *5:28 0
44 *1:61 *13:24 0
45 *1:61 *14:14 0
46 *1:61 *15:14 0
*RES
1 A[0] *1:9 12.1339 
2 *1:9 *1:13 7.35714 
3 *1:13 *102:B 9.83571 
4 *1:13 *1:24 1.375 
5 *1:24 *98:B 9.72857 
6 *1:24 *1:37 2.24554 
7 *1:37 *88:A2 9.3 
8 *1:37 *116:B 20.8937 
9 *1:9 *1:61 9.96428 
10 *1:61 *93:B 11.0857 
11 *1:61 *101:A 21.1571 
*END

*D_NET *2 0.00399609
*CONN
*P A[1] I
*I *87:B I *D sky130_fd_sc_hd__xnor2_1
*I *86:B I *D sky130_fd_sc_hd__nand2b_1
*I *109:B I *D sky130_fd_sc_hd__nand2_1
*I *111:A1 I *D sky130_fd_sc_hd__o22ai_1
*I *107:B I *D sky130_fd_sc_hd__nor2_1
*CAP
1 A[1] 0.000907201
2 *87:B 0.000309617
3 *86:B 3.61502e-05
4 *109:B 0.000106525
5 *111:A1 2.0535e-05
6 *107:B 1.1337e-05
7 *2:45 0.000277904
8 *2:39 0.000622601
9 *2:26 0.000491985
10 *2:15 0.00121223
11 *86:B *115:B 0
12 *86:B *15:14 0
13 *87:B *6:13 0
14 *87:B *6:15 0
15 *87:B *14:14 0
16 *87:B *15:14 0
17 *87:B *52:64 0
18 *107:B *94:B 0
19 *109:B *86:A_N 0
20 *109:B *109:A 0
21 *109:B *115:B 0
22 *109:B *122:B1 0
23 *109:B *130:C 0
24 *109:B *48:6 0
25 *111:A1 *112:B 0
26 *2:15 Y[2] 0
27 *2:15 *101:B 0
28 *2:15 *110:B1 0
29 *2:15 *127:A2 0
30 *2:15 *3:9 0
31 *2:15 *8:21 0
32 *2:15 *12:13 0
33 *2:15 *33:10 0
34 *2:26 *94:B 0
35 *2:26 *107:A 0
36 *2:26 *110:A2 0
37 *2:26 *111:B2 0
38 *2:26 *112:B 0
39 *2:26 *117:C_N 0
40 *2:26 *119:A 0
41 *2:39 *111:B2 0
42 *2:39 *119:A 0
43 *2:45 *122:B1 0
44 *2:45 *124:A 0
45 *2:45 *6:15 0
46 *2:45 *6:42 0
*RES
1 A[1] *2:15 25.0982 
2 *2:15 *107:B 9.56786 
3 *2:15 *2:26 6.16071 
4 *2:26 *111:A1 9.72857 
5 *2:26 *2:39 8.52232 
6 *2:39 *2:45 7.55804 
7 *2:45 *109:B 11.4964 
8 *2:45 *86:B 10.3938 
9 *2:39 *87:B 20.8312 
*END

*D_NET *3 0.00465422
*CONN
*P A[2] I
*I *128:A1 I *D sky130_fd_sc_hd__o22ai_1
*I *125:B I *D sky130_fd_sc_hd__nor2_1
*I *126:B I *D sky130_fd_sc_hd__nand2_1
*I *133:B I *D sky130_fd_sc_hd__maj3_1
*I *84:B I *D sky130_fd_sc_hd__xnor2_1
*I *85:B I *D sky130_fd_sc_hd__xor2_1
*I *83:B I *D sky130_fd_sc_hd__nand2b_1
*CAP
1 A[2] 0.00106846
2 *128:A1 0.000240003
3 *125:B 0.000147595
4 *126:B 5.30488e-05
5 *133:B 0.00014075
6 *84:B 0
7 *85:B 0.000224816
8 *83:B 2.39575e-05
9 *3:70 0.000387599
10 *3:47 0.000176045
11 *3:25 0.000357324
12 *3:21 0.000272767
13 *3:15 0.000337683
14 *3:9 0.00122417
15 *83:B *83:A_N 0
16 *83:B *23:14 0
17 *85:B *83:A_N 0
18 *85:B *85:A 0
19 *85:B *23:14 0
20 *85:B *29:14 0
21 *125:B *94:A 0
22 *125:B *96:B1 0
23 *125:B *127:A1 0
24 *125:B *127:A2 0
25 *125:B *127:B2 0
26 *125:B *136:A 0
27 *125:B *39:49 0
28 *125:B *40:35 0
29 *126:B *84:A 0
30 *126:B *29:14 0
31 *128:A1 *128:B2 0
32 *128:A1 *129:A 0
33 *128:A1 *129:B 0
34 *128:A1 *130:C 0
35 *128:A1 *40:35 0
36 *133:B *84:A 0
37 *133:B *133:A 0
38 *133:B *29:14 0
39 *133:B *56:43 0
40 *3:9 Carry 0
41 *3:9 Y[1] 0
42 *3:9 *94:A 0
43 *3:9 *110:A2 0
44 *3:9 *119:A 0
45 *3:9 *127:A2 0
46 *3:9 *7:5 0
47 *3:9 *13:24 0
48 *3:15 *127:A2 0
49 *3:15 *24:27 0
50 *3:15 *56:16 0
51 *3:21 *140:A2 0
52 *3:21 *7:11 0
53 *3:21 *23:14 0
54 *3:21 *24:10 0
55 *3:21 *24:27 0
56 *3:25 *7:15 0
57 *3:25 *23:14 0
58 *3:47 *84:A 0
59 *3:47 *29:14 0
60 *2:15 *3:9 0
*RES
1 A[2] *3:9 24.3839 
2 *3:9 *3:15 3.66071 
3 *3:15 *3:21 3.04018 
4 *3:21 *3:25 6.97768 
5 *3:25 *83:B 9.83125 
6 *3:25 *85:B 13.9607 
7 *3:21 *3:47 5.23661 
8 *3:47 *84:B 9.3 
9 *3:47 *133:B 12.3 
10 *3:15 *126:B 14.9071 
11 *3:9 *3:70 4.5 
12 *3:70 *125:B 12.3179 
13 *3:70 *128:A1 14.3714 
*END

*D_NET *4 0.00549522
*CONN
*P A[3] I
*I *142:A2 I *D sky130_fd_sc_hd__a21oi_1
*I *82:B I *D sky130_fd_sc_hd__xor2_1
*I *81:B I *D sky130_fd_sc_hd__xnor2_1
*I *135:B I *D sky130_fd_sc_hd__nor2_1
*I *80:A I *D sky130_fd_sc_hd__clkinv_1
*I *136:B I *D sky130_fd_sc_hd__nand2_1
*I *138:A1 I *D sky130_fd_sc_hd__o22ai_1
*CAP
1 A[3] 0.001046
2 *142:A2 0
3 *82:B 0.000180109
4 *81:B 4.83429e-05
5 *135:B 0
6 *80:A 0.000405957
7 *136:B 2.56688e-05
8 *138:A1 0
9 *4:85 0.000340926
10 *4:79 0.000587835
11 *4:41 0.000621254
12 *4:37 0.000813868
13 *4:21 0.000140856
14 *4:17 0.0012844
15 *80:A *92:A2 0
16 *80:A *143:A 0
17 *80:A *8:38 0
18 *80:A *9:10 0
19 *80:A *39:20 0
20 *80:A *52:8 0
21 *80:A *52:64 0
22 *81:B *81:A 0
23 *81:B *82:A 0
24 *81:B *142:B1 0
25 *82:B *82:A 0
26 *82:B *131:C 0
27 *82:B *142:B1 0
28 *82:B *21:10 0
29 *82:B *70:22 0
30 *136:B *136:A 0
31 *136:B *39:49 0
32 *4:17 Y[3] 0
33 *4:17 *93:A 0
34 *4:17 *94:C 0
35 *4:17 *105:A 0
36 *4:17 *5:9 0
37 *4:17 *10:9 0
38 *4:17 *10:11 0
39 *4:17 *10:15 0
40 *4:17 *40:10 0
41 *4:17 *40:12 0
42 *4:21 *96:A1 0
43 *4:21 *138:A2 0
44 *4:21 *16:32 0
45 *4:21 *40:12 0
46 *4:37 *96:B1 0
47 *4:37 *96:B2 0
48 *4:37 *136:A 0
49 *4:41 *95:A 0
50 *4:41 *95:C 0
51 *4:41 *96:B2 0
52 *4:41 *135:A 0
53 *4:41 *10:86 0
54 *4:41 *11:27 0
55 *4:41 *11:47 0
56 *4:41 *39:20 0
57 *4:41 *39:49 0
58 *4:79 *95:B 0
59 *4:79 *95:C 0
60 *4:79 *96:B1 0
61 *4:79 *96:B2 0
62 *4:79 *137:A2 0
63 *4:79 *139:A1 0
64 *4:79 *139:A2 0
65 *4:79 *139:B1 0
66 *4:79 *139:C1 0
67 *4:79 *140:B1 0
68 *4:79 *142:B1 0
69 *4:79 *8:40 0
70 *4:79 *21:16 0
71 *4:79 *70:22 0
72 *4:85 *8:46 0
73 *4:85 *21:10 0
74 *4:85 *21:16 0
*RES
1 A[3] *4:17 32.6518 
2 *4:17 *4:21 7.05357 
3 *4:21 *138:A1 9.3 
4 *4:21 *136:B 9.83571 
5 *4:17 *4:37 7.13393 
6 *4:37 *4:41 4.61607 
7 *4:41 *80:A 27.4205 
8 *4:41 *135:B 9.3 
9 *4:37 *4:79 19.5804 
10 *4:79 *4:85 11.5536 
11 *4:85 *81:B 10.2464 
12 *4:85 *82:B 13.1214 
13 *4:79 *142:A2 9.3 
*END

*D_NET *5 0.00284298
*CONN
*P B[0] I
*I *79:A I *D sky130_fd_sc_hd__clkinv_1
*I *98:A I *D sky130_fd_sc_hd__nor2_1
*I *102:A I *D sky130_fd_sc_hd__nand2_1
*I *93:A I *D sky130_fd_sc_hd__xnor2_1
*CAP
1 B[0] 0.000468771
2 *79:A 2.56688e-05
3 *98:A 0
4 *102:A 9.88248e-05
5 *93:A 0.000161146
6 *5:32 0.00020127
7 *5:28 0.000692746
8 *5:9 0.00119455
9 *79:A *14:14 0
10 *79:A *15:14 0
11 *93:A *100:C 0
12 *102:A *88:B1 0
13 *102:A *104:A1 0
14 *102:A *110:B2 0
15 *102:A *116:A 0
16 *5:9 Y[1] 0
17 *5:9 *10:9 0
18 *5:28 *6:13 0
19 *5:28 *15:14 0
20 *5:28 *27:10 0
21 *5:32 *19:12 0
22 *5:32 *27:10 0
23 *93:B *5:28 0
24 *98:B *102:A 0
25 *1:9 *5:28 0
26 *1:13 *5:28 0
27 *1:13 *5:32 0
28 *1:24 *102:A 0
29 *1:37 *102:A 0
30 *1:61 *5:28 0
31 *4:17 *93:A 0
32 *4:17 *5:9 0
*RES
1 B[0] *5:9 10.7054 
2 *5:9 *93:A 17.3179 
3 *5:9 *5:28 21.067 
4 *5:28 *5:32 6.82589 
5 *5:32 *102:A 11.5143 
6 *5:32 *98:A 9.3 
7 *5:28 *79:A 14.3357 
*END

*D_NET *6 0.00368056
*CONN
*P B[1] I
*I *87:A I *D sky130_fd_sc_hd__xnor2_1
*I *86:A_N I *D sky130_fd_sc_hd__nand2b_1
*I *109:A I *D sky130_fd_sc_hd__nand2_1
*I *107:A I *D sky130_fd_sc_hd__nor2_1
*CAP
1 B[1] 0.000887314
2 *87:A 0
3 *86:A_N 2.56688e-05
4 *109:A 2.56688e-05
5 *107:A 0.000462881
6 *6:42 0.000151227
7 *6:15 0.000901626
8 *6:13 0.00122617
9 *86:A_N *15:14 0
10 *107:A *94:B 0
11 *107:A *112:B 0
12 *107:A *119:A 0
13 *107:A *125:A 0
14 *107:A *52:64 0
15 *6:13 Carry 0
16 *6:13 *15:14 0
17 *6:13 *27:10 0
18 *6:15 *119:C 0
19 *6:15 *27:10 0
20 *6:15 *27:12 0
21 *6:15 *27:18 0
22 *6:15 *42:27 0
23 *6:42 *118:C 0
24 *87:B *6:13 0
25 *87:B *6:15 0
26 *109:B *86:A_N 0
27 *109:B *109:A 0
28 *2:26 *107:A 0
29 *2:45 *6:15 0
30 *2:45 *6:42 0
31 *5:28 *6:13 0
*RES
1 B[1] *6:13 28.5804 
2 *6:13 *6:15 7.69643 
3 *6:15 *107:A 24.6036 
4 *6:15 *6:42 6.76786 
5 *6:42 *109:A 9.83571 
6 *6:42 *86:A_N 9.83571 
7 *6:13 *87:A 13.8 
*END

*D_NET *7 0.00418411
*CONN
*P B[2] I
*I *125:A I *D sky130_fd_sc_hd__nor2_1
*I *126:A I *D sky130_fd_sc_hd__nand2_1
*I *133:A I *D sky130_fd_sc_hd__maj3_1
*I *84:A I *D sky130_fd_sc_hd__xnor2_1
*I *85:A I *D sky130_fd_sc_hd__xor2_1
*I *83:A_N I *D sky130_fd_sc_hd__nand2b_1
*CAP
1 B[2] 0.00106156
2 *125:A 0.00016289
3 *126:A 4.92646e-05
4 *133:A 6.20329e-05
5 *84:A 6.80223e-05
6 *85:A 0.000183318
7 *83:A_N 0.000124921
8 *7:37 0.000130055
9 *7:15 0.000450168
10 *7:11 0.000205244
11 *7:9 0.000287386
12 *7:5 0.00139925
13 *83:A_N *23:14 0
14 *83:A_N *29:14 0
15 *84:A *24:10 0
16 *84:A *56:43 0
17 *85:A *25:8 0
18 *85:A *29:14 0
19 *125:A *39:61 0
20 *125:A *40:35 0
21 *125:A *56:43 0
22 *125:A *70:22 0
23 *126:A *123:A 0
24 *126:A *128:B2 0
25 *126:A *133:C 0
26 *133:A *56:43 0
27 *7:5 Y[1] 0
28 *7:5 Y[2] 0
29 *7:5 Zero 0
30 *7:5 *94:A 0
31 *7:5 *104:A2 0
32 *7:5 *110:A2 0
33 *7:5 *112:A 0
34 *7:5 *112:B 0
35 *7:5 *119:A 0
36 *7:5 *128:B1 0
37 *7:5 *13:24 0
38 *7:5 *19:12 0
39 *7:5 *43:48 0
40 *7:9 *128:B2 0
41 *7:9 *129:A 0
42 *7:9 *133:C 0
43 *7:9 *24:10 0
44 *7:9 *24:27 0
45 *7:9 *60:10 0
46 *7:11 *133:C 0
47 *7:11 *24:10 0
48 *7:15 *70:22 0
49 *83:B *83:A_N 0
50 *85:B *83:A_N 0
51 *85:B *85:A 0
52 *107:A *125:A 0
53 *126:B *84:A 0
54 *133:B *84:A 0
55 *133:B *133:A 0
56 *1:13 *7:5 0
57 *3:9 *7:5 0
58 *3:21 *7:11 0
59 *3:25 *7:15 0
60 *3:47 *84:A 0
*RES
1 B[2] *7:5 24.1696 
2 *7:5 *7:9 3.97321 
3 *7:9 *7:11 1.5625 
4 *7:11 *7:15 7.66071 
5 *7:15 *83:A_N 11.9071 
6 *7:15 *85:A 13.1884 
7 *7:11 *7:37 4.5 
8 *7:37 *84:A 10.6571 
9 *7:37 *133:A 10.6571 
10 *7:9 *126:A 15.1482 
11 *7:5 *125:A 21.33 
*END

*D_NET *8 0.00540887
*CONN
*P B[3] I
*I *135:A I *D sky130_fd_sc_hd__nor2_1
*I *136:A I *D sky130_fd_sc_hd__nand2_1
*I *142:A1 I *D sky130_fd_sc_hd__a21oi_1
*I *82:A I *D sky130_fd_sc_hd__xor2_1
*I *81:A I *D sky130_fd_sc_hd__xnor2_1
*I *92:A1 I *D sky130_fd_sc_hd__o21ai_0
*CAP
1 B[3] 0.00114045
2 *135:A 2.56688e-05
3 *136:A 0.000411117
4 *142:A1 0
5 *82:A 0.000222463
6 *81:A 4.53482e-05
7 *92:A1 7.93114e-05
8 *8:46 0.000420397
9 *8:42 0.000355363
10 *8:40 0.000694375
11 *8:38 0.000450384
12 *8:21 0.00156399
13 *81:A *142:B1 0
14 *81:A *143:B 0
15 *82:A *131:C 0
16 *82:A *140:A1 0
17 *92:A1 *9:10 0
18 *136:A *95:A 0
19 *136:A *95:C 0
20 *136:A *96:B1 0
21 *136:A *138:B1 0
22 *136:A *138:B2 0
23 *136:A *139:A1 0
24 *136:A *21:16 0
25 *136:A *39:20 0
26 *136:A *39:49 0
27 *8:21 Y[2] 0
28 *8:21 *11:13 0
29 *8:21 *11:17 0
30 *8:21 *12:13 0
31 *8:21 *43:14 0
32 *8:21 *43:29 0
33 *8:21 *52:64 0
34 *8:38 *95:A 0
35 *8:38 *95:B 0
36 *8:38 *113:A 0
37 *8:38 *9:10 0
38 *8:38 *11:21 0
39 *8:38 *52:8 0
40 *8:38 *52:64 0
41 *8:40 *95:B 0
42 *8:40 *95:C 0
43 *8:40 *137:B1 0
44 *8:40 *52:8 0
45 *8:42 *137:B1 0
46 *8:42 *139:B1 0
47 *8:42 *143:B 0
48 *8:42 *143:C_N 0
49 *8:42 *21:16 0
50 *8:46 *143:B 0
51 *8:46 *21:16 0
52 *80:A *8:38 0
53 *81:B *81:A 0
54 *81:B *82:A 0
55 *82:B *82:A 0
56 *101:A *8:21 0
57 *125:B *136:A 0
58 *136:B *136:A 0
59 *2:15 *8:21 0
60 *4:37 *136:A 0
61 *4:41 *135:A 0
62 *4:79 *8:40 0
63 *4:85 *8:46 0
*RES
1 B[3] *8:21 30.0775 
2 *8:21 *92:A1 17.6741 
3 *8:21 *8:38 11.2761 
4 *8:38 *8:40 1.94643 
5 *8:40 *8:42 4.67857 
6 *8:42 *8:46 7.96429 
7 *8:46 *81:A 10.2464 
8 *8:46 *82:A 13.9429 
9 *8:42 *142:A1 13.8 
10 *8:40 *136:A 32.0857 
11 *8:38 *135:A 14.3357 
*END

*D_NET *9 0.00344832
*CONN
*P Carry O
*I *143:Y O *D sky130_fd_sc_hd__nor3b_1
*CAP
1 Carry 0.000679059
2 *143:Y 0.0010451
3 *9:10 0.00172416
4 Carry Y[1] 0
5 *9:10 *11:74 0
6 *9:10 *31:10 0
7 *9:10 *39:20 0
8 *80:A *9:10 0
9 *92:A1 *9:10 0
10 *3:9 Carry 0
11 *6:13 Carry 0
12 *8:38 *9:10 0
*RES
1 *143:Y *9:10 42.0277 
2 *9:10 Carry 18.692 
*END

*D_NET *10 0.0039192
*CONN
*P OP[0] I
*I *108:B I *D sky130_fd_sc_hd__or3_1
*I *95:A I *D sky130_fd_sc_hd__nand3_1
*I *100:B I *D sky130_fd_sc_hd__nand3b_1
*I *91:SLEEP I *D sky130_fd_sc_hd__lpflow_isobufsrc_1
*I *97:A2 I *D sky130_fd_sc_hd__a211oi_1
*I *117:C_N I *D sky130_fd_sc_hd__nor3b_1
*I *113:B I *D sky130_fd_sc_hd__nor3_1
*I *99:B I *D sky130_fd_sc_hd__nand3_1
*CAP
1 OP[0] 0.000534839
2 *108:B 0
3 *95:A 0.000157428
4 *100:B 2.0535e-05
5 *91:SLEEP 0.000186954
6 *97:A2 2.56688e-05
7 *117:C_N 3.59363e-05
8 *113:B 0.000125135
9 *99:B 6.80223e-05
10 *10:86 0.000262029
11 *10:57 0.000367919
12 *10:21 0.00041423
13 *10:15 0.000450644
14 *10:11 0.000344645
15 *10:9 0.00092521
16 *91:SLEEP *91:A 0
17 *91:SLEEP *100:A_N 0
18 *91:SLEEP *100:C 0
19 *91:SLEEP *106:A1 0
20 *95:A *95:B 0
21 *95:A *95:C 0
22 *95:A *137:A2 0
23 *99:B *99:A 0
24 *99:B *99:C 0
25 *99:B *11:27 0
26 *100:B *100:C 0
27 *113:B *99:A 0
28 *113:B *113:C 0
29 *113:B *11:27 0
30 *117:C_N *117:A 0
31 *10:9 Y[3] 0
32 *10:11 *12:30 0
33 *10:15 *16:32 0
34 *10:21 *99:A 0
35 *10:21 *117:A 0
36 *10:21 *117:B 0
37 *10:21 *11:27 0
38 *10:21 *11:47 0
39 *10:21 *12:58 0
40 *10:21 *47:48 0
41 *10:21 *52:64 0
42 *10:21 *56:16 0
43 *10:57 *100:C 0
44 *10:86 *11:27 0
45 *10:86 *11:47 0
46 *136:A *95:A 0
47 *2:26 *117:C_N 0
48 *4:17 *10:9 0
49 *4:17 *10:11 0
50 *4:17 *10:15 0
51 *4:41 *95:A 0
52 *4:41 *10:86 0
53 *5:9 *10:9 0
54 *8:38 *95:A 0
*RES
1 OP[0] *10:9 12.3304 
2 *10:9 *10:11 5.28571 
3 *10:11 *10:15 6.52232 
4 *10:15 *10:21 7.02232 
5 *10:21 *99:B 10.6571 
6 *10:21 *113:B 9.72857 
7 *10:15 *117:C_N 10.1125 
8 *10:11 *97:A2 14.3357 
9 *10:9 *10:57 7.91071 
10 *10:57 *91:SLEEP 13.1393 
11 *10:57 *100:B 9.72857 
12 *113:B *10:86 11.6705 
13 *10:86 *95:A 21.7286 
14 *10:86 *108:B 9.3 
*END

*D_NET *11 0.00498478
*CONN
*P OP[1] I
*I *97:B1 I *D sky130_fd_sc_hd__a211oi_1
*I *100:A_N I *D sky130_fd_sc_hd__nand3b_1
*I *91:A I *D sky130_fd_sc_hd__lpflow_isobufsrc_1
*I *108:C I *D sky130_fd_sc_hd__or3_1
*I *117:B I *D sky130_fd_sc_hd__nor3b_1
*I *95:B I *D sky130_fd_sc_hd__nand3_1
*I *113:C I *D sky130_fd_sc_hd__nor3_1
*I *99:C I *D sky130_fd_sc_hd__nand3_1
*CAP
1 OP[1] 0.00084125
2 *97:B1 0.000199429
3 *100:A_N 6.20329e-05
4 *91:A 0.000127916
5 *108:C 0
6 *117:B 0.000180109
7 *95:B 0.000125844
8 *113:C 1.32622e-05
9 *99:C 0.000105242
10 *11:74 0.000231242
11 *11:47 0.000381249
12 *11:27 0.000213479
13 *11:21 0.000444748
14 *11:17 0.000667034
15 *11:13 0.00139194
16 *91:A *92:A2 0
17 *91:A *92:B1 0
18 *91:A *96:A2 0
19 *91:A *100:C 0
20 *95:B *96:A2 0
21 *95:B *106:A2 0
22 *95:B *113:A 0
23 *95:B *137:A2 0
24 *97:B1 *101:B 0
25 *97:B1 *33:10 0
26 *99:C *99:A 0
27 *100:A_N *106:A1 0
28 *113:C *99:A 0
29 *117:B *96:A2 0
30 *117:B *96:B2 0
31 *117:B *137:A2 0
32 *11:13 Y[0] 0
33 *11:13 Zero 0
34 *11:13 *43:29 0
35 *11:13 *43:48 0
36 *11:21 *113:A 0
37 *11:21 *18:10 0
38 *11:21 *18:36 0
39 *11:21 *31:10 0
40 *11:21 *40:10 0
41 *11:74 *31:10 0
42 *91:SLEEP *91:A 0
43 *91:SLEEP *100:A_N 0
44 *95:A *95:B 0
45 *99:B *99:C 0
46 *99:B *11:27 0
47 *101:A *97:B1 0
48 *113:B *113:C 0
49 *113:B *11:27 0
50 *1:13 *11:13 0
51 *4:41 *11:27 0
52 *4:41 *11:47 0
53 *4:79 *95:B 0
54 *8:21 *11:13 0
55 *8:21 *11:17 0
56 *8:38 *95:B 0
57 *8:38 *11:21 0
58 *8:40 *95:B 0
59 *9:10 *11:74 0
60 *10:21 *117:B 0
61 *10:21 *11:27 0
62 *10:21 *11:47 0
63 *10:86 *11:27 0
64 *10:86 *11:47 0
*RES
1 OP[1] *11:13 17.8307 
2 *11:13 *11:17 4.68214 
3 *11:17 *11:21 10.7321 
4 *11:21 *11:27 2.32143 
5 *11:27 *99:C 11.4964 
6 *11:27 *113:C 9.72857 
7 *11:21 *11:47 1.78571 
8 *11:47 *95:B 21.1571 
9 *11:47 *117:B 13.1214 
10 *11:21 *108:C 9.3 
11 *11:17 *11:74 5.5 
12 *11:74 *91:A 12.0321 
13 *11:74 *100:A_N 10.6571 
14 *11:13 *97:B1 21.6564 
*END

*D_NET *12 0.00346264
*CONN
*P OP[2] I
*I *78:A I *D sky130_fd_sc_hd__clkinv_1
*I *113:A I *D sky130_fd_sc_hd__nor3_1
*I *117:A I *D sky130_fd_sc_hd__nor3b_1
*I *97:A1 I *D sky130_fd_sc_hd__a211oi_1
*I *100:C I *D sky130_fd_sc_hd__nand3b_1
*CAP
1 OP[2] 0.000624794
2 *78:A 0
3 *113:A 9.91025e-05
4 *117:A 0.000229686
5 *97:A1 0
6 *100:C 0.000223318
7 *12:58 0.000406058
8 *12:39 0.000569156
9 *12:30 0.000247463
10 *12:13 0.00106306
11 *100:C *106:A1 0
12 *100:C *13:24 0
13 *100:C *40:10 0
14 *113:A *96:A2 0
15 *117:A *94:C 0
16 *117:A *39:61 0
17 *117:A *47:48 0
18 *117:A *56:16 0
19 *12:13 Y[2] 0
20 *12:13 Y[3] 0
21 *12:13 *141:D 0
22 *12:13 *16:32 0
23 *12:13 *33:10 0
24 *12:30 *16:32 0
25 *12:58 *96:A2 0
26 *12:58 *101:B 0
27 *12:58 *105:C 0
28 *12:58 *106:A1 0
29 *12:58 *43:14 0
30 *12:58 *47:48 0
31 *91:A *100:C 0
32 *91:SLEEP *100:C 0
33 *93:A *100:C 0
34 *93:B *12:13 0
35 *95:B *113:A 0
36 *100:B *100:C 0
37 *101:A *12:13 0
38 *117:C_N *117:A 0
39 *2:15 *12:13 0
40 *8:21 *12:13 0
41 *8:38 *113:A 0
42 *10:11 *12:30 0
43 *10:21 *117:A 0
44 *10:21 *12:58 0
45 *10:57 *100:C 0
46 *11:21 *113:A 0
*RES
1 OP[2] *12:13 18.7589 
2 *12:13 *100:C 13.9607 
3 *12:13 *12:30 13.8036 
4 *12:30 *97:A1 9.3 
5 *12:30 *12:39 0.825893 
6 *12:39 *117:A 23.3268 
7 *12:39 *12:58 6.48214 
8 *12:58 *113:A 20.55 
9 *12:58 *78:A 9.3 
*END

*D_NET *13 0.00210039
*CONN
*P Y[0] O
*I *141:A I *D sky130_fd_sc_hd__nor4_1
*I *106:Y O *D sky130_fd_sc_hd__o21ai_0
*CAP
1 Y[0] 0.000596883
2 *141:A 0
3 *106:Y 0.00045331
4 *13:24 0.00105019
5 Y[0] *14:14 0
6 *13:24 Y[1] 0
7 *13:24 Zero 0
8 *13:24 *104:B1 0
9 *13:24 *105:C 0
10 *13:24 *141:D 0
11 *13:24 *14:14 0
12 *100:C *13:24 0
13 *1:9 Y[0] 0
14 *1:61 Y[0] 0
15 *1:61 *13:24 0
16 *3:9 *13:24 0
17 *7:5 *13:24 0
18 *11:13 Y[0] 0
*RES
1 *106:Y *13:24 28.3312 
2 *13:24 *141:A 9.3 
3 *13:24 Y[0] 17.9955 
*END

*D_NET *14 0.00283601
*CONN
*P Y[1] O
*I *141:B I *D sky130_fd_sc_hd__nor4_1
*I *119:Y O *D sky130_fd_sc_hd__nand3_1
*CAP
1 Y[1] 0.000869797
2 *141:B 0
3 *119:Y 0.000548208
4 *14:14 0.00141801
5 Y[1] Y[2] 0
6 Y[1] Zero 0
7 *14:14 Zero 0
8 *14:14 *104:B1 0
9 *14:14 *116:A 0
10 *14:14 *15:14 0
11 *14:14 *19:12 0
12 *14:14 *27:10 0
13 *14:14 *42:27 0
14 Carry Y[1] 0
15 Y[0] *14:14 0
16 *79:A *14:14 0
17 *87:B *14:14 0
18 *116:B *14:14 0
19 *1:61 *14:14 0
20 *3:9 Y[1] 0
21 *5:9 Y[1] 0
22 *7:5 Y[1] 0
23 *13:24 Y[1] 0
24 *13:24 *14:14 0
*RES
1 *119:Y *14:14 30.0143 
2 *14:14 Y[1] 32.6518 
3 *14:14 *141:B 9.3 
*END

*D_NET *15 0.00321217
*CONN
*P Y[2] O
*I *141:C I *D sky130_fd_sc_hd__nor4_1
*I *130:Y O *D sky130_fd_sc_hd__nand3_1
*CAP
1 Y[2] 0.00061808
2 *141:C 0
3 *130:Y 0.000988003
4 *15:14 0.00160608
5 *15:14 *124:A 0
6 *15:14 *130:A 0
7 *15:14 *27:10 0
8 *15:14 *28:29 0
9 *15:14 *52:64 0
10 Y[1] Y[2] 0
11 *79:A *15:14 0
12 *86:A_N *15:14 0
13 *86:B *15:14 0
14 *87:B *15:14 0
15 *1:61 *15:14 0
16 *2:15 Y[2] 0
17 *5:28 *15:14 0
18 *6:13 *15:14 0
19 *7:5 Y[2] 0
20 *8:21 Y[2] 0
21 *12:13 Y[2] 0
22 *14:14 *15:14 0
*RES
1 *130:Y *15:14 39.8536 
2 *15:14 Y[2] 27.3304 
3 *15:14 *141:C 9.3 
*END

*D_NET *16 0.00299491
*CONN
*P Y[3] O
*I *141:D I *D sky130_fd_sc_hd__nor4_1
*I *140:X O *D sky130_fd_sc_hd__a21o_1
*CAP
1 Y[3] 0.000551749
2 *141:D 0.000143745
3 *140:X 0.000801962
4 *16:32 0.00149746
5 *141:D *33:10 0
6 *16:32 *94:C 0
7 *16:32 *96:A1 0
8 *16:32 *131:B 0
9 *16:32 *140:B1 0
10 *16:32 *33:10 0
11 *16:32 *39:49 0
12 *16:32 *52:64 0
13 *16:32 *56:16 0
14 *101:A *16:32 0
15 *1:61 *141:D 0
16 *4:17 Y[3] 0
17 *4:21 *16:32 0
18 *10:9 Y[3] 0
19 *10:15 *16:32 0
20 *12:13 Y[3] 0
21 *12:13 *141:D 0
22 *12:13 *16:32 0
23 *12:30 *16:32 0
24 *13:24 *141:D 0
*RES
1 *140:X *16:32 36.8593 
2 *16:32 *141:D 16.8 
3 *16:32 Y[3] 12.6518 
*END

*D_NET *17 0.00134134
*CONN
*P Zero O
*I *141:Y O *D sky130_fd_sc_hd__nor4_1
*CAP
1 Zero 0.00067067
2 *141:Y 0.00067067
3 Zero *104:B1 0
4 Y[1] Zero 0
5 *7:5 Zero 0
6 *11:13 Zero 0
7 *13:24 Zero 0
8 *14:14 Zero 0
*RES
1 *141:Y Zero 28.9339 
*END

*D_NET *18 0.00122338
*CONN
*I *106:A1 I *D sky130_fd_sc_hd__o21ai_0
*I *103:A I *D sky130_fd_sc_hd__nand2_1
*I *99:A I *D sky130_fd_sc_hd__nand3_1
*I *108:A I *D sky130_fd_sc_hd__or3_1
*I *78:Y O *D sky130_fd_sc_hd__clkinv_1
*CAP
1 *106:A1 0.000124066
2 *103:A 0
3 *99:A 0.000237008
4 *108:A 3.22476e-05
5 *78:Y 2.56688e-05
6 *18:36 0.000207044
7 *18:10 0.000378977
8 *18:8 0.000218368
9 *99:A *52:64 0
10 *106:A1 *40:10 0
11 *106:A1 *43:14 0
12 *108:A *96:A2 0
13 *18:10 *96:A2 0
14 *18:36 *96:A2 0
15 *18:36 *105:C 0
16 *91:SLEEP *106:A1 0
17 *99:B *99:A 0
18 *99:C *99:A 0
19 *100:A_N *106:A1 0
20 *100:C *106:A1 0
21 *113:B *99:A 0
22 *113:C *99:A 0
23 *10:21 *99:A 0
24 *11:21 *18:10 0
25 *11:21 *18:36 0
26 *12:58 *106:A1 0
*RES
1 *78:Y *18:8 14.3357 
2 *18:8 *18:10 2.55357 
3 *18:10 *108:A 14.5321 
4 *18:10 *99:A 18.8893 
5 *18:8 *18:36 6.44643 
6 *18:36 *103:A 9.3 
7 *18:36 *106:A1 11.8893 
*END

*D_NET *19 0.000499755
*CONN
*I *88:A1 I *D sky130_fd_sc_hd__o21ai_0
*I *116:A I *D sky130_fd_sc_hd__or3_1
*I *79:Y O *D sky130_fd_sc_hd__clkinv_1
*CAP
1 *88:A1 0
2 *116:A 0.00014182
3 *79:Y 0.000108058
4 *19:12 0.000249878
5 *116:A *88:B1 0
6 *116:A *110:B2 0
7 *19:12 *27:10 0
8 *19:12 *42:27 0
9 *102:A *116:A 0
10 *116:B *116:A 0
11 *1:37 *116:A 0
12 *5:32 *19:12 0
13 *7:5 *19:12 0
14 *14:14 *116:A 0
15 *14:14 *19:12 0
*RES
1 *79:Y *19:12 20.7062 
2 *19:12 *116:A 12.4116 
3 *19:12 *88:A1 9.3 
*END

*D_NET *20 0.000130055
*CONN
*I *92:A2 I *D sky130_fd_sc_hd__o21ai_0
*I *80:Y O *D sky130_fd_sc_hd__clkinv_1
*CAP
1 *92:A2 6.50276e-05
2 *80:Y 6.50276e-05
3 *80:A *92:A2 0
4 *91:A *92:A2 0
*RES
1 *80:Y *92:A2 19.9571 
*END

*D_NET *21 0.00117537
*CONN
*I *134:A I *D sky130_fd_sc_hd__xnor2_1
*I *95:C I *D sky130_fd_sc_hd__nand3_1
*I *137:A1 I *D sky130_fd_sc_hd__o22ai_1
*I *81:Y O *D sky130_fd_sc_hd__xnor2_1
*CAP
1 *134:A 0
2 *95:C 0.000175273
3 *137:A1 9.62579e-06
4 *81:Y 0.000141698
5 *21:16 0.000445987
6 *21:10 0.000402786
7 *137:A1 *39:20 0
8 *21:10 *132:A 0
9 *21:10 *142:B1 0
10 *21:10 *70:22 0
11 *21:16 *139:A1 0
12 *21:16 *139:B1 0
13 *82:B *21:10 0
14 *95:A *95:C 0
15 *136:A *95:C 0
16 *136:A *21:16 0
17 *4:41 *95:C 0
18 *4:79 *95:C 0
19 *4:79 *21:16 0
20 *4:85 *21:10 0
21 *4:85 *21:16 0
22 *8:40 *95:C 0
23 *8:42 *21:16 0
24 *8:46 *21:16 0
*RES
1 *81:Y *21:10 16.9964 
2 *21:10 *21:16 5.89732 
3 *21:16 *137:A1 14.0009 
4 *21:16 *95:C 17.9384 
5 *21:10 *134:A 13.8 
*END

*D_NET *22 0.000532558
*CONN
*I *90:B1 I *D sky130_fd_sc_hd__a21oi_1
*I *131:A I *D sky130_fd_sc_hd__nand3_1
*I *82:X O *D sky130_fd_sc_hd__xor2_1
*CAP
1 *90:B1 0.000101392
2 *131:A 6.58832e-05
3 *82:X 9.90042e-05
4 *22:10 0.000266279
5 *90:B1 *131:B 0
6 *90:B1 *131:C 0
7 *90:B1 *30:14 0
8 *131:A *131:B 0
9 *131:A *131:C 0
10 *22:10 *140:A2 0
11 *22:10 *23:14 0
*RES
1 *82:X *22:10 20.55 
2 *22:10 *131:A 10.675 
3 *22:10 *90:B1 11.4786 
*END

*D_NET *23 0.000957583
*CONN
*I *90:A1 I *D sky130_fd_sc_hd__a21oi_1
*I *131:B I *D sky130_fd_sc_hd__nand3_1
*I *83:Y O *D sky130_fd_sc_hd__nand2b_1
*CAP
1 *90:A1 0
2 *131:B 0.000226313
3 *83:Y 0.000252478
4 *23:14 0.000478791
5 *131:B *131:C 0
6 *131:B *139:A2 0
7 *131:B *140:B1 0
8 *23:14 *131:C 0
9 *23:14 *140:A2 0
10 *23:14 *29:14 0
11 *83:A_N *23:14 0
12 *83:B *23:14 0
13 *85:B *23:14 0
14 *90:B1 *131:B 0
15 *131:A *131:B 0
16 *3:21 *23:14 0
17 *3:25 *23:14 0
18 *16:32 *131:B 0
19 *22:10 *23:14 0
*RES
1 *83:Y *23:14 23.7955 
2 *23:14 *131:B 13.9607 
3 *23:14 *90:A1 9.3 
*END

*D_NET *24 0.00146094
*CONN
*I *94:A I *D sky130_fd_sc_hd__nand3_1
*I *127:A1 I *D sky130_fd_sc_hd__o22ai_1
*I *123:A I *D sky130_fd_sc_hd__xnor2_1
*I *84:Y O *D sky130_fd_sc_hd__xnor2_1
*CAP
1 *94:A 0.00020345
2 *127:A1 9.62579e-06
3 *123:A 0.000239554
4 *84:Y 0.000117194
5 *24:27 0.000373724
6 *24:10 0.000517396
7 *94:A *94:B 0
8 *94:A *96:B1 0
9 *94:A *40:35 0
10 *123:A *124:B 0
11 *123:A *128:B2 0
12 *123:A *56:43 0
13 *123:A *70:22 0
14 *24:10 *56:43 0
15 *84:A *24:10 0
16 *125:B *94:A 0
17 *125:B *127:A1 0
18 *126:A *123:A 0
19 *3:9 *94:A 0
20 *3:15 *24:27 0
21 *3:21 *24:10 0
22 *3:21 *24:27 0
23 *7:5 *94:A 0
24 *7:9 *24:10 0
25 *7:9 *24:27 0
26 *7:11 *24:10 0
*RES
1 *84:Y *24:10 16.5321 
2 *24:10 *123:A 19.3179 
3 *24:10 *24:27 3.70982 
4 *24:27 *127:A1 14.0009 
5 *24:27 *94:A 18.2286 
*END

*D_NET *25 0.000731905
*CONN
*I *89:B1 I *D sky130_fd_sc_hd__a21o_1
*I *120:A I *D sky130_fd_sc_hd__nand3_1
*I *85:X O *D sky130_fd_sc_hd__xor2_1
*CAP
1 *89:B1 0
2 *120:A 0.000241031
3 *85:X 0.000124921
4 *25:8 0.000365953
5 *120:A *89:A2 0
6 *120:A *120:B 0
7 *120:A *121:A 0
8 *120:A *121:B 0
9 *120:A *121:C 0
10 *25:8 *121:A 0
11 *25:8 *29:14 0
12 *85:A *25:8 0
*RES
1 *85:X *25:8 11.9071 
2 *25:8 *120:A 23.5366 
3 *25:8 *89:B1 9.3 
*END

*D_NET *26 0.00098044
*CONN
*I *120:B I *D sky130_fd_sc_hd__nand3_1
*I *89:A1 I *D sky130_fd_sc_hd__a21o_1
*I *86:Y O *D sky130_fd_sc_hd__nand2b_1
*CAP
1 *120:B 2.56688e-05
2 *89:A1 0.000191036
3 *86:Y 0.000273515
4 *26:8 0.00049022
5 *89:A1 *89:A2 0
6 *89:A1 *28:29 0
7 *26:8 *28:29 0
8 *120:A *120:B 0
*RES
1 *86:Y *26:8 20.0723 
2 *26:8 *89:A1 18.0277 
3 *26:8 *120:B 14.3357 
*END

*D_NET *27 0.00282532
*CONN
*I *116:C I *D sky130_fd_sc_hd__or3_1
*I *88:B1 I *D sky130_fd_sc_hd__o21ai_0
*I *110:B2 I *D sky130_fd_sc_hd__o22ai_1
*I *114:A I *D sky130_fd_sc_hd__xor2_1
*I *122:A1 I *D sky130_fd_sc_hd__o21ai_0
*I *94:B I *D sky130_fd_sc_hd__nand3_1
*I *87:Y O *D sky130_fd_sc_hd__xnor2_1
*CAP
1 *116:C 0
2 *88:B1 4.98402e-05
3 *110:B2 0.000304175
4 *114:A 0
5 *122:A1 0
6 *94:B 0.000361074
7 *87:Y 0.000246568
8 *27:58 4.98402e-05
9 *27:28 0.000544283
10 *27:18 0.000337938
11 *27:12 0.000571967
12 *27:10 0.000359631
13 *94:B *94:C 0
14 *94:B *96:B1 0
15 *94:B *111:B2 0
16 *94:B *112:B 0
17 *94:B *119:A 0
18 *94:B *130:C 0
19 *94:B *40:35 0
20 *94:B *47:48 0
21 *110:B2 *104:A1 0
22 *110:B2 *112:A 0
23 *110:B2 *119:A 0
24 *110:B2 *39:61 0
25 *27:12 *28:12 0
26 *27:18 *118:B 0
27 *27:18 *119:C 0
28 *27:18 *42:27 0
29 *27:18 *48:6 0
30 *27:28 *111:B2 0
31 *27:28 *118:C 0
32 *27:28 *122:A2 0
33 *27:28 *128:B1 0
34 *27:28 *130:C 0
35 *27:28 *43:48 0
36 *27:28 *60:10 0
37 *94:A *94:B 0
38 *102:A *88:B1 0
39 *102:A *110:B2 0
40 *107:A *94:B 0
41 *107:B *94:B 0
42 *116:A *88:B1 0
43 *116:A *110:B2 0
44 *1:37 *88:B1 0
45 *1:37 *110:B2 0
46 *2:26 *94:B 0
47 *5:28 *27:10 0
48 *5:32 *27:10 0
49 *6:13 *27:10 0
50 *6:15 *27:10 0
51 *6:15 *27:12 0
52 *6:15 *27:18 0
53 *14:14 *27:10 0
54 *15:14 *27:10 0
55 *19:12 *27:10 0
*RES
1 *87:Y *27:10 19.1705 
2 *27:10 *27:12 2.62946 
3 *27:12 *27:18 8 
4 *27:18 *27:28 13.0357 
5 *27:28 *94:B 16.8357 
6 *27:28 *122:A1 9.3 
7 *27:18 *114:A 9.3 
8 *27:12 *110:B2 20.0857 
9 *27:10 *27:58 4.5 
10 *27:58 *88:B1 10.3402 
11 *27:58 *116:C 9.3 
*END

*D_NET *28 0.00194283
*CONN
*I *120:C I *D sky130_fd_sc_hd__nand3_1
*I *89:A2 I *D sky130_fd_sc_hd__a21o_1
*I *118:A I *D sky130_fd_sc_hd__nand3_1
*I *88:Y O *D sky130_fd_sc_hd__o21ai_0
*CAP
1 *120:C 0
2 *89:A2 0.000164884
3 *118:A 8.12845e-06
4 *88:Y 0.00013108
5 *28:29 0.000832209
6 *28:12 0.000806532
7 *89:A2 *121:A 0
8 *28:12 *118:B 0
9 *28:12 *119:A 0
10 *28:12 *42:27 0
11 *28:29 *118:B 0
12 *28:29 *118:C 0
13 *28:29 *119:A 0
14 *28:29 *119:B 0
15 *28:29 *124:A 0
16 *28:29 *130:A 0
17 *89:A1 *89:A2 0
18 *89:A1 *28:29 0
19 *116:B *28:12 0
20 *120:A *89:A2 0
21 *15:14 *28:29 0
22 *26:8 *28:29 0
23 *27:12 *28:12 0
*RES
1 *88:Y *28:12 21.1929 
2 *28:12 *118:A 9.50089 
3 *28:12 *28:29 19.6071 
4 *28:29 *89:A2 17.4964 
5 *28:29 *120:C 13.8 
*END

*D_NET *29 0.0019225
*CONN
*I *121:A I *D sky130_fd_sc_hd__nand3_1
*I *90:A2 I *D sky130_fd_sc_hd__a21oi_1
*I *131:C I *D sky130_fd_sc_hd__nand3_1
*I *89:X O *D sky130_fd_sc_hd__a21o_1
*CAP
1 *121:A 0.000147764
2 *90:A2 2.26741e-05
3 *131:C 0.000285993
4 *89:X 0
5 *29:14 0.000813486
6 *29:4 0.000652584
7 *121:A *121:C 0
8 *131:C *140:A1 0
9 *131:C *140:B1 0
10 *131:C *30:14 0
11 *29:14 *121:B 0
12 *29:14 *121:C 0
13 *29:14 *133:C 0
14 *29:14 *56:43 0
15 *82:A *131:C 0
16 *82:B *131:C 0
17 *83:A_N *29:14 0
18 *85:A *29:14 0
19 *85:B *29:14 0
20 *89:A2 *121:A 0
21 *90:B1 *131:C 0
22 *120:A *121:A 0
23 *126:B *29:14 0
24 *131:A *131:C 0
25 *131:B *131:C 0
26 *133:B *29:14 0
27 *3:47 *29:14 0
28 *23:14 *131:C 0
29 *23:14 *29:14 0
30 *25:8 *121:A 0
31 *25:8 *29:14 0
*RES
1 *89:X *29:4 9.3 
2 *29:4 *29:14 10.692 
3 *29:14 *131:C 15.2687 
4 *29:14 *90:A2 9.80446 
5 *29:4 *121:A 21.6036 
*END

*D_NET *30 0.000929869
*CONN
*I *132:SLEEP I *D sky130_fd_sc_hd__lpflow_isobufsrc_1
*I *96:A1 I *D sky130_fd_sc_hd__o22a_1
*I *90:Y O *D sky130_fd_sc_hd__a21oi_1
*CAP
1 *132:SLEEP 0
2 *96:A1 0.000338648
3 *90:Y 0.000126287
4 *30:14 0.000464935
5 *96:A1 *96:B1 0
6 *96:A1 *137:A2 0
7 *96:A1 *138:A2 0
8 *96:A1 *139:C1 0
9 *96:A1 *140:A1 0
10 *96:A1 *56:16 0
11 *90:B1 *30:14 0
12 *131:C *30:14 0
13 *4:21 *96:A1 0
14 *16:32 *96:A1 0
*RES
1 *90:Y *30:14 21.0009 
2 *30:14 *96:A1 25.9429 
3 *30:14 *132:SLEEP 9.3 
*END

*D_NET *31 0.000262509
*CONN
*I *103:B I *D sky130_fd_sc_hd__nand2_1
*I *92:B1 I *D sky130_fd_sc_hd__o21ai_0
*I *91:X O *D sky130_fd_sc_hd__lpflow_isobufsrc_1
*CAP
1 *103:B 0
2 *92:B1 4.55621e-05
3 *91:X 8.56922e-05
4 *31:10 0.000131254
5 *92:B1 *96:A2 0
6 *91:A *92:B1 0
7 *9:10 *31:10 0
8 *11:21 *31:10 0
9 *11:74 *31:10 0
*RES
1 *91:X *31:10 20.2464 
2 *31:10 *92:B1 10.3134 
3 *31:10 *103:B 9.3 
*END

*D_NET *32 0.00117112
*CONN
*I *96:A2 I *D sky130_fd_sc_hd__o22a_1
*I *92:Y O *D sky130_fd_sc_hd__o21ai_0
*CAP
1 *96:A2 0.000585561
2 *92:Y 0.000585561
3 *96:A2 *96:B1 0
4 *96:A2 *96:B2 0
5 *96:A2 *106:A2 0
6 *96:A2 *43:14 0
7 *96:A2 *52:64 0
8 *96:A2 *56:16 0
9 *91:A *96:A2 0
10 *92:B1 *96:A2 0
11 *95:B *96:A2 0
12 *108:A *96:A2 0
13 *113:A *96:A2 0
14 *117:B *96:A2 0
15 *12:58 *96:A2 0
16 *18:10 *96:A2 0
17 *18:36 *96:A2 0
*RES
1 *92:Y *96:A2 40.2071 
*END

*D_NET *33 0.00116128
*CONN
*I *97:C1 I *D sky130_fd_sc_hd__a211oi_1
*I *94:C I *D sky130_fd_sc_hd__nand3_1
*I *93:Y O *D sky130_fd_sc_hd__xnor2_1
*CAP
1 *97:C1 1.02675e-05
2 *94:C 0.000327597
3 *93:Y 0.000242778
4 *33:10 0.000580642
5 *94:C *96:B2 0
6 *94:B *94:C 0
7 *97:B1 *33:10 0
8 *117:A *94:C 0
9 *141:D *33:10 0
10 *2:15 *33:10 0
11 *4:17 *94:C 0
12 *12:13 *33:10 0
13 *16:32 *94:C 0
14 *16:32 *33:10 0
*RES
1 *93:Y *33:10 19.2866 
2 *33:10 *94:C 21.5634 
3 *33:10 *97:C1 14.0143 
*END

*D_NET *34 0.000480434
*CONN
*I *96:B1 I *D sky130_fd_sc_hd__o22a_1
*I *94:Y O *D sky130_fd_sc_hd__nand3_1
*CAP
1 *96:B1 0.000240217
2 *94:Y 0.000240217
3 *96:B1 *96:B2 0
4 *96:B1 *138:B2 0
5 *96:B1 *39:49 0
6 *96:B1 *56:16 0
7 *94:A *96:B1 0
8 *94:B *96:B1 0
9 *96:A1 *96:B1 0
10 *96:A2 *96:B1 0
11 *125:B *96:B1 0
12 *136:A *96:B1 0
13 *4:37 *96:B1 0
14 *4:79 *96:B1 0
*RES
1 *94:Y *96:B1 23.6134 
*END

*D_NET *35 0.000545034
*CONN
*I *96:B2 I *D sky130_fd_sc_hd__o22a_1
*I *95:Y O *D sky130_fd_sc_hd__nand3_1
*CAP
1 *96:B2 0.000272517
2 *95:Y 0.000272517
3 *96:B2 *137:A2 0
4 *94:C *96:B2 0
5 *96:A2 *96:B2 0
6 *96:B1 *96:B2 0
7 *117:B *96:B2 0
8 *4:37 *96:B2 0
9 *4:41 *96:B2 0
10 *4:79 *96:B2 0
*RES
1 *95:Y *96:B2 24.4036 
*END

*D_NET *36 0.000697234
*CONN
*I *106:A2 I *D sky130_fd_sc_hd__o21ai_0
*I *96:X O *D sky130_fd_sc_hd__o22a_1
*CAP
1 *106:A2 0.000348617
2 *96:X 0.000348617
3 *106:A2 *137:A2 0
4 *106:A2 *138:B1 0
5 *95:B *106:A2 0
6 *96:A2 *106:A2 0
*RES
1 *96:X *106:A2 35.4705 
*END

*D_NET *37 0.000534395
*CONN
*I *105:A I *D sky130_fd_sc_hd__nor3_1
*I *97:Y O *D sky130_fd_sc_hd__a211oi_1
*CAP
1 *105:A 0.000267198
2 *97:Y 0.000267198
3 *105:A *101:B 0
4 *105:A *40:10 0
5 *4:17 *105:A 0
*RES
1 *97:Y *105:A 33.7741 
*END

*D_NET *38 0.000284923
*CONN
*I *104:A1 I *D sky130_fd_sc_hd__o22ai_1
*I *98:Y O *D sky130_fd_sc_hd__nor2_1
*CAP
1 *104:A1 0.000142462
2 *98:Y 0.000142462
3 *104:A1 *104:B1 0
4 *104:A1 *112:A 0
5 *102:A *104:A1 0
6 *102:B *104:A1 0
7 *110:B2 *104:A1 0
8 *1:24 *104:A1 0
*RES
1 *98:Y *104:A1 21.6357 
*END

*D_NET *39 0.00287747
*CONN
*I *127:B2 I *D sky130_fd_sc_hd__o22ai_1
*I *104:A2 I *D sky130_fd_sc_hd__o22ai_1
*I *110:A1 I *D sky130_fd_sc_hd__o22ai_1
*I *137:B2 I *D sky130_fd_sc_hd__o22ai_1
*I *99:Y O *D sky130_fd_sc_hd__nand3_1
*CAP
1 *127:B2 9.17659e-05
2 *104:A2 8.57316e-05
3 *110:A1 0
4 *137:B2 3.3209e-05
5 *99:Y 0.000307085
6 *39:61 0.000608006
7 *39:49 0.00101271
8 *39:20 0.000738962
9 *104:A2 *112:A 0
10 *104:A2 *43:48 0
11 *127:B2 *127:A2 0
12 *127:B2 *127:B1 0
13 *127:B2 *129:B 0
14 *137:B2 *137:A2 0
15 *137:B2 *140:B1 0
16 *137:B2 *143:A 0
17 *39:20 *139:A1 0
18 *39:20 *143:A 0
19 *39:20 *143:C_N 0
20 *39:20 *52:8 0
21 *39:49 *127:B1 0
22 *39:49 *137:A2 0
23 *39:49 *138:B1 0
24 *39:49 *139:C1 0
25 *39:49 *140:B1 0
26 *39:61 *110:A2 0
27 *39:61 *110:B1 0
28 *39:61 *119:A 0
29 *39:61 *127:A2 0
30 *39:61 *56:16 0
31 *80:A *39:20 0
32 *96:B1 *39:49 0
33 *110:B2 *39:61 0
34 *117:A *39:61 0
35 *125:A *39:61 0
36 *125:B *127:B2 0
37 *125:B *39:49 0
38 *136:A *39:20 0
39 *136:A *39:49 0
40 *136:B *39:49 0
41 *137:A1 *39:20 0
42 *4:41 *39:20 0
43 *4:41 *39:49 0
44 *7:5 *104:A2 0
45 *9:10 *39:20 0
46 *16:32 *39:49 0
*RES
1 *99:Y *39:20 25.6348 
2 *39:20 *137:B2 10.2911 
3 *39:20 *39:49 9.22321 
4 *39:49 *39:61 20.4821 
5 *39:61 *110:A1 9.3 
6 *39:61 *104:A2 20.2464 
7 *39:49 *127:B2 11.3402 
*END

*D_NET *40 0.00321468
*CONN
*I *101:B I *D sky130_fd_sc_hd__nor2_1
*I *111:A2 I *D sky130_fd_sc_hd__o22ai_1
*I *128:A2 I *D sky130_fd_sc_hd__o22ai_1
*I *138:A2 I *D sky130_fd_sc_hd__o22ai_1
*I *100:Y O *D sky130_fd_sc_hd__nand3b_1
*CAP
1 *101:B 0.000323263
2 *111:A2 0.000119749
3 *128:A2 8.57316e-05
4 *138:A2 8.88777e-05
5 *100:Y 0.000244238
6 *40:35 0.000697406
7 *40:12 0.000834361
8 *40:10 0.000821057
9 *101:B *106:B1 0
10 *111:A2 *111:B2 0
11 *111:A2 *118:C 0
12 *111:A2 *122:A2 0
13 *111:A2 *128:B1 0
14 *128:A2 *128:B1 0
15 *128:A2 *128:B2 0
16 *128:A2 *129:A 0
17 *128:A2 *60:10 0
18 *138:A2 *138:B1 0
19 *138:A2 *138:B2 0
20 *40:10 *138:B1 0
21 *40:12 *138:B1 0
22 *40:35 *130:C 0
23 *40:35 *52:64 0
24 *40:35 *56:43 0
25 *94:A *40:35 0
26 *94:B *40:35 0
27 *96:A1 *138:A2 0
28 *97:B1 *101:B 0
29 *100:C *40:10 0
30 *105:A *101:B 0
31 *105:A *40:10 0
32 *106:A1 *40:10 0
33 *125:A *40:35 0
34 *125:B *40:35 0
35 *128:A1 *40:35 0
36 *2:15 *101:B 0
37 *4:17 *40:10 0
38 *4:17 *40:12 0
39 *4:21 *138:A2 0
40 *4:21 *40:12 0
41 *11:21 *40:10 0
42 *12:58 *101:B 0
*RES
1 *100:Y *40:10 19.2286 
2 *40:10 *40:12 5.82143 
3 *40:12 *138:A2 15.8179 
4 *40:12 *40:35 22.2484 
5 *40:35 *128:A2 15.7464 
6 *40:35 *111:A2 16.5812 
7 *40:10 *101:B 30.1036 
*END

*D_NET *41 0.000171125
*CONN
*I *105:B I *D sky130_fd_sc_hd__nor3_1
*I *101:Y O *D sky130_fd_sc_hd__nor2_1
*CAP
1 *105:B 8.55626e-05
2 *101:Y 8.55626e-05
*RES
1 *101:Y *105:B 20.3857 
*END

*D_NET *42 0.00158654
*CONN
*I *114:B I *D sky130_fd_sc_hd__xor2_1
*I *122:A2 I *D sky130_fd_sc_hd__o21ai_0
*I *104:B1 I *D sky130_fd_sc_hd__o22ai_1
*I *102:Y O *D sky130_fd_sc_hd__nand2_1
*CAP
1 *114:B 0
2 *122:A2 0.000180476
3 *104:B1 0.000181821
4 *102:Y 0
5 *42:27 0.000611451
6 *42:4 0.000612796
7 *104:B1 *110:A2 0
8 *104:B1 *112:A 0
9 *122:A2 *118:C 0
10 *122:A2 *48:6 0
11 *42:27 *118:C 0
12 *42:27 *43:48 0
13 Zero *104:B1 0
14 *102:B *104:B1 0
15 *104:A1 *104:B1 0
16 *111:A2 *122:A2 0
17 *116:B *42:27 0
18 *1:24 *104:B1 0
19 *1:24 *42:27 0
20 *1:37 *42:27 0
21 *6:15 *42:27 0
22 *13:24 *104:B1 0
23 *14:14 *104:B1 0
24 *14:14 *42:27 0
25 *19:12 *42:27 0
26 *27:18 *42:27 0
27 *27:28 *122:A2 0
28 *28:12 *42:27 0
*RES
1 *102:Y *42:4 9.3 
2 *42:4 *104:B1 13.1571 
3 *42:4 *42:27 18.5536 
4 *42:27 *122:A2 22.2107 
5 *42:27 *114:B 9.3 
*END

*D_NET *43 0.00306484
*CONN
*I *111:B1 I *D sky130_fd_sc_hd__o22ai_1
*I *128:B1 I *D sky130_fd_sc_hd__o22ai_1
*I *104:B2 I *D sky130_fd_sc_hd__o22ai_1
*I *138:B1 I *D sky130_fd_sc_hd__o22ai_1
*I *103:Y O *D sky130_fd_sc_hd__nand2_1
*CAP
1 *111:B1 0
2 *128:B1 0.000219422
3 *104:B2 3.78403e-05
4 *138:B1 0.000438871
5 *103:Y 0.000189013
6 *43:48 0.00052192
7 *43:29 0.000685113
8 *43:14 0.000972659
9 *128:B1 *111:B2 0
10 *128:B1 *112:A 0
11 *128:B1 *112:B 0
12 *128:B1 *129:A 0
13 *138:B1 *105:C 0
14 *138:B1 *137:A2 0
15 *138:B1 *138:B2 0
16 *43:14 *52:64 0
17 *43:29 *105:C 0
18 *43:29 *52:64 0
19 *43:48 *112:A 0
20 *43:48 *118:C 0
21 *43:48 *52:64 0
22 *96:A2 *43:14 0
23 *104:A2 *43:48 0
24 *106:A1 *43:14 0
25 *106:A2 *138:B1 0
26 *111:A2 *128:B1 0
27 *128:A2 *128:B1 0
28 *136:A *138:B1 0
29 *138:A2 *138:B1 0
30 *7:5 *128:B1 0
31 *7:5 *43:48 0
32 *8:21 *43:14 0
33 *8:21 *43:29 0
34 *11:13 *43:29 0
35 *11:13 *43:48 0
36 *12:58 *43:14 0
37 *27:28 *128:B1 0
38 *27:28 *43:48 0
39 *39:49 *138:B1 0
40 *40:10 *138:B1 0
41 *40:12 *138:B1 0
42 *42:27 *43:48 0
*RES
1 *103:Y *43:14 20.2672 
2 *43:14 *138:B1 27.1296 
3 *43:14 *43:29 1.27214 
4 *43:29 *104:B2 18.0225 
5 *43:29 *43:48 8.34412 
6 *43:48 *128:B1 18.7821 
7 *43:48 *111:B1 13.8 
*END

*D_NET *44 0.000981818
*CONN
*I *105:C I *D sky130_fd_sc_hd__nor3_1
*I *104:Y O *D sky130_fd_sc_hd__o22ai_1
*CAP
1 *105:C 0.000490909
2 *104:Y 0.000490909
3 *105:C *112:A 0
4 *105:C *52:64 0
5 *138:B1 *105:C 0
6 *12:58 *105:C 0
7 *13:24 *105:C 0
8 *18:36 *105:C 0
9 *43:29 *105:C 0
*RES
1 *104:Y *105:C 39.0754 
*END

*D_NET *45 0.000131766
*CONN
*I *106:B1 I *D sky130_fd_sc_hd__o21ai_0
*I *105:Y O *D sky130_fd_sc_hd__nor3_1
*CAP
1 *106:B1 6.58832e-05
2 *105:Y 6.58832e-05
3 *101:B *106:B1 0
*RES
1 *105:Y *106:B1 19.975 
*END

*D_NET *46 0.000498742
*CONN
*I *110:A2 I *D sky130_fd_sc_hd__o22ai_1
*I *107:Y O *D sky130_fd_sc_hd__nor2_1
*CAP
1 *110:A2 0.000249371
2 *107:Y 0.000249371
3 *110:A2 *110:B1 0
4 *110:A2 *119:A 0
5 *104:B1 *110:A2 0
6 *2:26 *110:A2 0
7 *3:9 *110:A2 0
8 *7:5 *110:A2 0
9 *39:61 *110:A2 0
*RES
1 *107:Y *110:A2 33.0286 
*END

*D_NET *47 0.00257664
*CONN
*I *110:B1 I *D sky130_fd_sc_hd__o22ai_1
*I *127:A2 I *D sky130_fd_sc_hd__o22ai_1
*I *137:A2 I *D sky130_fd_sc_hd__o22ai_1
*I *108:X O *D sky130_fd_sc_hd__or3_1
*CAP
1 *110:B1 0.000135228
2 *127:A2 0.000399722
3 *137:A2 0.000449837
4 *108:X 0.000753371
5 *47:48 0.000838484
6 *127:A2 *127:B1 0
7 *127:A2 *129:A 0
8 *127:A2 *129:B 0
9 *127:A2 *56:16 0
10 *137:A2 *138:B2 0
11 *137:A2 *52:64 0
12 *94:B *47:48 0
13 *95:A *137:A2 0
14 *95:B *137:A2 0
15 *96:A1 *137:A2 0
16 *96:B2 *137:A2 0
17 *106:A2 *137:A2 0
18 *110:A2 *110:B1 0
19 *117:A *47:48 0
20 *117:B *137:A2 0
21 *125:B *127:A2 0
22 *127:B2 *127:A2 0
23 *137:B2 *137:A2 0
24 *138:B1 *137:A2 0
25 *2:15 *110:B1 0
26 *2:15 *127:A2 0
27 *3:9 *127:A2 0
28 *3:15 *127:A2 0
29 *4:79 *137:A2 0
30 *10:21 *47:48 0
31 *12:58 *47:48 0
32 *39:49 *137:A2 0
33 *39:61 *110:B1 0
34 *39:61 *127:A2 0
*RES
1 *108:X *137:A2 43.6371 
2 *108:X *47:48 20.1036 
3 *47:48 *127:A2 22.8045 
4 *47:48 *110:B1 16.8134 
*END

*D_NET *48 0.000551361
*CONN
*I *122:B1 I *D sky130_fd_sc_hd__o21ai_0
*I *111:B2 I *D sky130_fd_sc_hd__o22ai_1
*I *109:Y O *D sky130_fd_sc_hd__nand2_1
*CAP
1 *122:B1 2.0535e-05
2 *111:B2 0.000212792
3 *109:Y 4.23535e-05
4 *48:6 0.000275681
5 *111:B2 *60:10 0
6 *48:6 *130:C 0
7 *94:B *111:B2 0
8 *109:B *122:B1 0
9 *109:B *48:6 0
10 *111:A2 *111:B2 0
11 *122:A2 *48:6 0
12 *128:B1 *111:B2 0
13 *2:26 *111:B2 0
14 *2:39 *111:B2 0
15 *2:45 *122:B1 0
16 *27:18 *48:6 0
17 *27:28 *111:B2 0
*RES
1 *109:Y *48:6 10.2464 
2 *48:6 *111:B2 22.8357 
3 *48:6 *122:B1 9.72857 
*END

*D_NET *49 0.000447648
*CONN
*I *112:A I *D sky130_fd_sc_hd__nor2_1
*I *110:Y O *D sky130_fd_sc_hd__o22ai_1
*CAP
1 *112:A 0.000223824
2 *110:Y 0.000223824
3 *104:A1 *112:A 0
4 *104:A2 *112:A 0
5 *104:B1 *112:A 0
6 *105:C *112:A 0
7 *110:B2 *112:A 0
8 *128:B1 *112:A 0
9 *7:5 *112:A 0
10 *43:48 *112:A 0
*RES
1 *110:Y *112:A 32.5286 
*END

*D_NET *50 0.00035415
*CONN
*I *112:B I *D sky130_fd_sc_hd__nor2_1
*I *111:Y O *D sky130_fd_sc_hd__o22ai_1
*CAP
1 *112:B 0.000177075
2 *111:Y 0.000177075
3 *112:B *119:A 0
4 *94:B *112:B 0
5 *107:A *112:B 0
6 *111:A1 *112:B 0
7 *128:B1 *112:B 0
8 *2:26 *112:B 0
9 *7:5 *112:B 0
*RES
1 *111:Y *112:B 31.7429 
*END

*D_NET *51 0.00124273
*CONN
*I *119:A I *D sky130_fd_sc_hd__nand3_1
*I *112:Y O *D sky130_fd_sc_hd__nor2_1
*CAP
1 *119:A 0.000621363
2 *112:Y 0.000621363
3 *119:A *119:B 0
4 *94:B *119:A 0
5 *107:A *119:A 0
6 *110:A2 *119:A 0
7 *110:B2 *119:A 0
8 *112:B *119:A 0
9 *2:26 *119:A 0
10 *2:39 *119:A 0
11 *3:9 *119:A 0
12 *7:5 *119:A 0
13 *28:12 *119:A 0
14 *28:29 *119:A 0
15 *39:61 *119:A 0
*RES
1 *112:Y *119:A 40.7562 
*END

*D_NET *52 0.00413774
*CONN
*I *115:A I *D sky130_fd_sc_hd__nand2_1
*I *124:A I *D sky130_fd_sc_hd__nand2_1
*I *139:A1 I *D sky130_fd_sc_hd__a211o_1
*I *143:C_N I *D sky130_fd_sc_hd__nor3b_1
*I *113:Y O *D sky130_fd_sc_hd__nor3_1
*CAP
1 *115:A 2.56688e-05
2 *124:A 0.00033978
3 *139:A1 0.000318761
4 *143:C_N 7.12874e-05
5 *113:Y 0
6 *52:64 0.00151562
7 *52:8 0.000553253
8 *52:6 0.00131337
9 *124:A *118:C 0
10 *124:A *130:A 0
11 *124:A *130:B 0
12 *143:C_N *137:B1 0
13 *143:C_N *143:A 0
14 *143:C_N *143:B 0
15 *52:8 *137:B1 0
16 *80:A *52:8 0
17 *80:A *52:64 0
18 *87:B *52:64 0
19 *96:A2 *52:64 0
20 *99:A *52:64 0
21 *105:C *52:64 0
22 *107:A *52:64 0
23 *136:A *139:A1 0
24 *137:A2 *52:64 0
25 *2:45 *124:A 0
26 *4:79 *139:A1 0
27 *8:21 *52:64 0
28 *8:38 *52:8 0
29 *8:38 *52:64 0
30 *8:40 *52:8 0
31 *8:42 *143:C_N 0
32 *10:21 *52:64 0
33 *15:14 *124:A 0
34 *15:14 *52:64 0
35 *16:32 *52:64 0
36 *21:16 *139:A1 0
37 *28:29 *124:A 0
38 *39:20 *139:A1 0
39 *39:20 *143:C_N 0
40 *39:20 *52:8 0
41 *40:35 *52:64 0
42 *43:14 *52:64 0
43 *43:29 *52:64 0
44 *43:48 *52:64 0
*RES
1 *113:Y *52:6 13.8 
2 *52:6 *52:8 3.76786 
3 *52:8 *143:C_N 15.3714 
4 *52:8 *139:A1 34.2611 
5 *52:6 *52:64 25.5724 
6 *52:64 *124:A 21.5143 
7 *52:64 *115:A 14.3357 
*END

*D_NET *53 9.71135e-05
*CONN
*I *115:B I *D sky130_fd_sc_hd__nand2_1
*I *114:X O *D sky130_fd_sc_hd__xor2_1
*CAP
1 *115:B 4.85568e-05
2 *114:X 4.85568e-05
3 *86:B *115:B 0
4 *109:B *115:B 0
*RES
1 *114:X *115:B 19.6134 
*END

*D_NET *54 0.000290057
*CONN
*I *119:B I *D sky130_fd_sc_hd__nand3_1
*I *115:Y O *D sky130_fd_sc_hd__nand2_1
*CAP
1 *119:B 0.000145029
2 *115:Y 0.000145029
3 *119:A *119:B 0
4 *28:29 *119:B 0
*RES
1 *115:Y *119:B 21.9571 
*END

*D_NET *55 0.000493303
*CONN
*I *118:B I *D sky130_fd_sc_hd__nand3_1
*I *116:X O *D sky130_fd_sc_hd__or3_1
*CAP
1 *118:B 0.000246651
2 *116:X 0.000246651
3 *27:18 *118:B 0
4 *28:12 *118:B 0
5 *28:29 *118:B 0
*RES
1 *116:X *118:B 33.1 
*END

*D_NET *56 0.00377869
*CONN
*I *121:B I *D sky130_fd_sc_hd__nand3_1
*I *118:C I *D sky130_fd_sc_hd__nand3_1
*I *132:A I *D sky130_fd_sc_hd__lpflow_isobufsrc_1
*I *117:Y O *D sky130_fd_sc_hd__nor3b_1
*CAP
1 *121:B 0.00017027
2 *118:C 0.000572207
3 *132:A 0.000104726
4 *117:Y 0.000566622
5 *56:43 0.001218
6 *56:16 0.00114687
7 *118:C *130:A 0
8 *118:C *130:B 0
9 *118:C *133:C 0
10 *118:C *60:10 0
11 *121:B *121:C 0
12 *121:B *124:B 0
13 *121:B *130:B 0
14 *132:A *70:22 0
15 *56:16 *140:A1 0
16 *56:16 *140:A2 0
17 *56:43 *133:C 0
18 *56:43 *70:22 0
19 *84:A *56:43 0
20 *96:A1 *56:16 0
21 *96:A2 *56:16 0
22 *96:B1 *56:16 0
23 *111:A2 *118:C 0
24 *117:A *56:16 0
25 *120:A *121:B 0
26 *122:A2 *118:C 0
27 *123:A *56:43 0
28 *124:A *118:C 0
29 *125:A *56:43 0
30 *127:A2 *56:16 0
31 *133:A *56:43 0
32 *133:B *56:43 0
33 *3:15 *56:16 0
34 *6:42 *118:C 0
35 *10:21 *56:16 0
36 *16:32 *56:16 0
37 *21:10 *132:A 0
38 *24:10 *56:43 0
39 *27:28 *118:C 0
40 *28:29 *118:C 0
41 *29:14 *121:B 0
42 *29:14 *56:43 0
43 *39:61 *56:16 0
44 *40:35 *56:43 0
45 *42:27 *118:C 0
46 *43:48 *118:C 0
*RES
1 *117:Y *56:16 29.8752 
2 *56:16 *132:A 17.8221 
3 *56:16 *56:43 13.9737 
4 *56:43 *118:C 31.2464 
5 *56:43 *121:B 13.1929 
*END

*D_NET *57 0.000174744
*CONN
*I *119:C I *D sky130_fd_sc_hd__nand3_1
*I *118:Y O *D sky130_fd_sc_hd__nand3_1
*CAP
1 *119:C 8.73719e-05
2 *118:Y 8.73719e-05
3 *6:15 *119:C 0
4 *27:18 *119:C 0
*RES
1 *118:Y *119:C 29.475 
*END

*D_NET *58 0.000298186
*CONN
*I *121:C I *D sky130_fd_sc_hd__nand3_1
*I *120:Y O *D sky130_fd_sc_hd__nand3_1
*CAP
1 *121:C 0.000149093
2 *120:Y 0.000149093
3 *120:A *121:C 0
4 *121:A *121:C 0
5 *121:B *121:C 0
6 *29:14 *121:C 0
*RES
1 *120:Y *121:C 21.7116 
*END

*D_NET *59 0.000476095
*CONN
*I *130:A I *D sky130_fd_sc_hd__nand3_1
*I *121:Y O *D sky130_fd_sc_hd__nand3_1
*CAP
1 *130:A 0.000238048
2 *121:Y 0.000238048
3 *130:A *130:B 0
4 *118:C *130:A 0
5 *124:A *130:A 0
6 *15:14 *130:A 0
7 *28:29 *130:A 0
*RES
1 *121:Y *130:A 32.9214 
*END

*D_NET *60 0.000777188
*CONN
*I *123:B I *D sky130_fd_sc_hd__xnor2_1
*I *133:C I *D sky130_fd_sc_hd__maj3_1
*I *122:Y O *D sky130_fd_sc_hd__o21ai_0
*CAP
1 *123:B 0
2 *133:C 0.000160575
3 *122:Y 0.000228019
4 *60:10 0.000388594
5 *60:10 *128:B2 0
6 *60:10 *130:C 0
7 *111:B2 *60:10 0
8 *118:C *133:C 0
9 *118:C *60:10 0
10 *126:A *133:C 0
11 *128:A2 *60:10 0
12 *7:9 *133:C 0
13 *7:9 *60:10 0
14 *7:11 *133:C 0
15 *27:28 *60:10 0
16 *29:14 *133:C 0
17 *56:43 *133:C 0
*RES
1 *122:Y *60:10 18.8937 
2 *60:10 *133:C 17.3 
3 *60:10 *123:B 13.8 
*END

*D_NET *61 9.96804e-05
*CONN
*I *124:B I *D sky130_fd_sc_hd__nand2_1
*I *123:Y O *D sky130_fd_sc_hd__xnor2_1
*CAP
1 *124:B 4.98402e-05
2 *123:Y 4.98402e-05
3 *124:B *130:B 0
4 *121:B *124:B 0
5 *123:A *124:B 0
*RES
1 *123:Y *124:B 19.6402 
*END

*D_NET *62 0.000222801
*CONN
*I *130:B I *D sky130_fd_sc_hd__nand3_1
*I *124:Y O *D sky130_fd_sc_hd__nand2_1
*CAP
1 *130:B 0.0001114
2 *124:Y 0.0001114
3 *118:C *130:B 0
4 *121:B *130:B 0
5 *124:A *130:B 0
6 *124:B *130:B 0
7 *130:A *130:B 0
*RES
1 *124:Y *130:B 30.0821 
*END

*D_NET *63 0.000171125
*CONN
*I *127:B1 I *D sky130_fd_sc_hd__o22ai_1
*I *125:Y O *D sky130_fd_sc_hd__nor2_1
*CAP
1 *127:B1 8.55626e-05
2 *125:Y 8.55626e-05
3 *127:A2 *127:B1 0
4 *127:B2 *127:B1 0
5 *39:49 *127:B1 0
*RES
1 *125:Y *127:B1 20.3857 
*END

*D_NET *64 0.000353494
*CONN
*I *128:B2 I *D sky130_fd_sc_hd__o22ai_1
*I *126:Y O *D sky130_fd_sc_hd__nand2_1
*CAP
1 *128:B2 0.000176747
2 *126:Y 0.000176747
3 *128:B2 *129:A 0
4 *128:B2 *129:B 0
5 *123:A *128:B2 0
6 *126:A *128:B2 0
7 *128:A1 *128:B2 0
8 *128:A2 *128:B2 0
9 *7:9 *128:B2 0
10 *60:10 *128:B2 0
*RES
1 *126:Y *128:B2 31.4214 
*END

*D_NET *65 0.000377548
*CONN
*I *129:A I *D sky130_fd_sc_hd__nor2_1
*I *127:Y O *D sky130_fd_sc_hd__o22ai_1
*CAP
1 *129:A 0.000188774
2 *127:Y 0.000188774
3 *129:A *129:B 0
4 *127:A2 *129:A 0
5 *128:A1 *129:A 0
6 *128:A2 *129:A 0
7 *128:B1 *129:A 0
8 *128:B2 *129:A 0
9 *7:9 *129:A 0
*RES
1 *127:Y *129:A 31.5598 
*END

*D_NET *66 0.000252837
*CONN
*I *129:B I *D sky130_fd_sc_hd__nor2_1
*I *128:Y O *D sky130_fd_sc_hd__o22ai_1
*CAP
1 *129:B 0.000126419
2 *128:Y 0.000126419
3 *127:A2 *129:B 0
4 *127:B2 *129:B 0
5 *128:A1 *129:B 0
6 *128:B2 *129:B 0
7 *129:A *129:B 0
*RES
1 *128:Y *129:B 21.3009 
*END

*D_NET *67 0.000525354
*CONN
*I *130:C I *D sky130_fd_sc_hd__nand3_1
*I *129:Y O *D sky130_fd_sc_hd__nor2_1
*CAP
1 *130:C 0.000262677
2 *129:Y 0.000262677
3 *94:B *130:C 0
4 *109:B *130:C 0
5 *128:A1 *130:C 0
6 *27:28 *130:C 0
7 *40:35 *130:C 0
8 *48:6 *130:C 0
9 *60:10 *130:C 0
*RES
1 *129:Y *130:C 24.0821 
*END

*D_NET *68 0.000452983
*CONN
*I *140:A1 I *D sky130_fd_sc_hd__a21o_1
*I *131:Y O *D sky130_fd_sc_hd__nand3_1
*CAP
1 *140:A1 0.000226491
2 *131:Y 0.000226491
3 *82:A *140:A1 0
4 *96:A1 *140:A1 0
5 *131:C *140:A1 0
6 *56:16 *140:A1 0
*RES
1 *131:Y *140:A1 32.5152 
*END

*D_NET *69 0.000445703
*CONN
*I *140:A2 I *D sky130_fd_sc_hd__a21o_1
*I *132:X O *D sky130_fd_sc_hd__lpflow_isobufsrc_1
*CAP
1 *140:A2 0.000222851
2 *132:X 0.000222851
3 *3:21 *140:A2 0
4 *22:10 *140:A2 0
5 *23:14 *140:A2 0
6 *56:16 *140:A2 0
*RES
1 *132:X *140:A2 33.0241 
*END

*D_NET *70 0.00182136
*CONN
*I *134:B I *D sky130_fd_sc_hd__xnor2_1
*I *142:B1 I *D sky130_fd_sc_hd__a21oi_1
*I *133:X O *D sky130_fd_sc_hd__maj3_1
*CAP
1 *134:B 0
2 *142:B1 0.000167275
3 *133:X 0.000743405
4 *70:22 0.00091068
5 *142:B1 *143:B 0
6 *70:22 *139:A2 0
7 *81:A *142:B1 0
8 *81:B *142:B1 0
9 *82:B *142:B1 0
10 *82:B *70:22 0
11 *123:A *70:22 0
12 *125:A *70:22 0
13 *132:A *70:22 0
14 *4:79 *142:B1 0
15 *4:79 *70:22 0
16 *7:15 *70:22 0
17 *21:10 *142:B1 0
18 *21:10 *70:22 0
19 *56:43 *70:22 0
*RES
1 *133:X *70:22 32.9846 
2 *70:22 *142:B1 12.7286 
3 *70:22 *134:B 9.3 
*END

*D_NET *71 0.000429952
*CONN
*I *139:A2 I *D sky130_fd_sc_hd__a211o_1
*I *134:Y O *D sky130_fd_sc_hd__xnor2_1
*CAP
1 *139:A2 0.000214976
2 *134:Y 0.000214976
3 *139:A2 *140:B1 0
4 *131:B *139:A2 0
5 *4:79 *139:A2 0
6 *70:22 *139:A2 0
*RES
1 *134:Y *139:A2 23.417 
*END

*D_NET *72 0.000345948
*CONN
*I *143:A I *D sky130_fd_sc_hd__nor3b_1
*I *137:B1 I *D sky130_fd_sc_hd__o22ai_1
*I *135:Y O *D sky130_fd_sc_hd__nor2_1
*CAP
1 *143:A 8.55626e-05
2 *137:B1 0.000172974
3 *135:Y 8.74112e-05
4 *80:A *143:A 0
5 *137:B2 *143:A 0
6 *143:C_N *137:B1 0
7 *143:C_N *143:A 0
8 *8:40 *137:B1 0
9 *8:42 *137:B1 0
10 *39:20 *143:A 0
11 *52:8 *137:B1 0
*RES
1 *135:Y *137:B1 29.475 
2 *137:B1 *143:A 20.3857 
*END

*D_NET *73 0.000260651
*CONN
*I *138:B2 I *D sky130_fd_sc_hd__o22ai_1
*I *136:Y O *D sky130_fd_sc_hd__nand2_1
*CAP
1 *138:B2 0.000130326
2 *136:Y 0.000130326
3 *96:B1 *138:B2 0
4 *136:A *138:B2 0
5 *137:A2 *138:B2 0
6 *138:A2 *138:B2 0
7 *138:B1 *138:B2 0
*RES
1 *136:Y *138:B2 30.4036 
*END

*D_NET *74 0.000436866
*CONN
*I *139:B1 I *D sky130_fd_sc_hd__a211o_1
*I *137:Y O *D sky130_fd_sc_hd__o22ai_1
*CAP
1 *139:B1 0.000218433
2 *137:Y 0.000218433
3 *139:B1 *139:C1 0
4 *139:B1 *140:B1 0
5 *4:79 *139:B1 0
6 *8:42 *139:B1 0
7 *21:16 *139:B1 0
*RES
1 *137:Y *139:B1 41.6179 
*END

*D_NET *75 0.000340877
*CONN
*I *139:C1 I *D sky130_fd_sc_hd__a211o_1
*I *138:Y O *D sky130_fd_sc_hd__o22ai_1
*CAP
1 *139:C1 0.000170439
2 *138:Y 0.000170439
3 *139:C1 *140:B1 0
4 *96:A1 *139:C1 0
5 *139:B1 *139:C1 0
6 *4:79 *139:C1 0
7 *39:49 *139:C1 0
*RES
1 *138:Y *139:C1 31.3143 
*END

*D_NET *76 0.000604072
*CONN
*I *140:B1 I *D sky130_fd_sc_hd__a21o_1
*I *139:X O *D sky130_fd_sc_hd__a211o_1
*CAP
1 *140:B1 0.000302036
2 *139:X 0.000302036
3 *131:B *140:B1 0
4 *131:C *140:B1 0
5 *137:B2 *140:B1 0
6 *139:A2 *140:B1 0
7 *139:B1 *140:B1 0
8 *139:C1 *140:B1 0
9 *4:79 *140:B1 0
10 *16:32 *140:B1 0
11 *39:49 *140:B1 0
*RES
1 *139:X *140:B1 24.9036 
*END

*D_NET *77 0.00059568
*CONN
*I *143:B I *D sky130_fd_sc_hd__nor3b_1
*I *142:Y O *D sky130_fd_sc_hd__a21oi_1
*CAP
1 *143:B 0.00029784
2 *142:Y 0.00029784
3 *81:A *143:B 0
4 *142:B1 *143:B 0
5 *143:C_N *143:B 0
6 *8:42 *143:B 0
7 *8:46 *143:B 0
*RES
1 *142:Y *143:B 34.2429 
*END
